; benchmark generated from python API
(set-info :status unknown)
(declare-fun x5 () Real)
(declare-fun x3 () Real)
(declare-fun bool.b7 () Bool)
(declare-fun bool.b8 () Bool)
(declare-fun bool.b10 () Bool)
(declare-fun bool.b12 () Bool)
(declare-fun bool.b14 () Bool)
(declare-fun x4 () Real)
(declare-fun bool.b6 () Bool)
(declare-fun bool.b23 () Bool)
(declare-fun bool.b5 () Bool)
(declare-fun bool.b22 () Bool)
(assert
 (forall ((?lambda Real) )(let ((?x39009 (* 1.0 ?lambda)))
 (let ((?x7910 (+ x3 ?x39009)))
 (let ((?x109 (* 1.0 ?x7910)))
 (let ((?x10151 (+ ?x109 (* 3.0 (+ x5 ?x39009)))))
 (let (($x16779 (<= ?x10151 30.0)))
 (let (($x10178 (not bool.b12)))
 (let (($x17319 (not bool.b14)))
 (let (($x92 (and $x17319 (and $x10178 (and (not bool.b10) (and bool.b7 (not bool.b8)))))))
 (let ((?x11846 (+ ?x109 (* (/ 3.0 20.0) (+ x4 (* 20.0 ?lambda))))))
 (let (($x12723 (<= ?x11846 1200.0)))
 (let (($x566 (and $x12723 (not (and (not (and (not $x16779) $x92)) (not (and bool.b7 $x16779)))))))
 (let (($x2610 (<= ?x11846 723.0)))
 (let (($x19375 (not $x2610)))
 (let (($x15535 (and $x19375 $x566)))
 (let (($x13186 (<= ?x10151 50.0)))
 (let ((?x18857 (+ ?x109 (* (/ 3.0 40.0) (+ x4 (* 20.0 ?lambda))))))
 (let (($x22254 (<= ?x18857 (/ 743.0 2.0))))
 (let (($x12236 (not $x92)))
 (let ((?x20383 (- 50.0)))
 (let (($x14671 (<= (+ (* (- 1.0) ?x7910) (* (- 3.0) (+ x5 ?x39009))) ?x20383)))
 (let (($x14856 (and (not (and (not $x14671) (and (not (and bool.b7 $x2610)) (not $x15535)))) (not (and $x14671 $x12236)))))
 (let (($x24213 (and (not (and (not $x13186) (not (and (<= ?x10151 60.0) $x92)))) (not (and $x13186 (not $x14856))))))
 (let (($x31279 (<= ?x18857 610.0)))
 (let (($x2313 (not $x22254)))
 (let (($x13130 (and (not (and $x2313 (not (and $x31279 $x24213)))) (not (and $x22254 (not (and $x13186 $x15535)))))))
 (let (($x4565 (<= ?x109 40.0)))
 (let (($x189 (not (and $x2313 (not (and $x31279 (and (<= ?x10151 60.0) (and $x12723 $x92))))))))
 (let (($x8173 (and $x189 (not (and $x22254 (not (and $x16779 (and $x19375 (and $x12723 $x92)))))))))
 (let (($x3890 (not $x4565)))
 (let ((?x65 (+ x5 ?x39009)))
 (let ((?x26295 (- 1.0)))
 (let ((?x26749 (* ?x26295 ?x65)))
 (let (($x8353 (<= ?x26749 (- 10.0))))
 (let (($x7086 (and $x8353 (and (not (and $x3890 (not $x8173))) (not (and $x4565 (not $x13130)))))))
 (let (($x6339 (not $x7086)))
 (let ((?x17175 (+ ?x11846 (* (- 4.0) ?x65))))
 (let (($x4728 (<= ?x17175 683.0)))
 (let (($x1318 (not (and (not (<= (+ ?x109 (* (/ ?x26295 2.0) ?x65)) (- 5.0))) $x12236))))
 (let (($x17672 (and bool.b7 (not (<= (+ ?x11846 (* (/ (- 7.0) 2.0) ?x65)) 688.0)))))
 (let ((?x15440 (- 5.0)))
 (let (($x11548 (<= (+ ?x109 (* (/ ?x26295 2.0) ?x65)) ?x15440)))
 (let (($x14291 (not $x4728)))
 (let (($x13297 (and (not (and $x14291 (not (and (not (and $x11548 (not $x17672))) $x1318)))) (not (and $x4728 $x6339)))))
 (let (($x6646 (<= ?x17175 1160.0)))
 (let ((?x39426 (+ ?x109 ?x26749)))
 (let (($x7021 (<= ?x39426 10.0)))
 (let (($x16136 (and (not (and (not $x7021) $x6339)) (not (and $x7021 (not (and $x6646 $x13297)))))))
 (let (($x559 (and (not (and (not $x13186) (not (and $x19375 (and $x12723 $x92))))) (not (and $x13186 (not (and $x19375 (not (and $x12723 $x12236)))))))))
 (let (($x4065 (and (not (and $x2313 (not (and $x31279 (and $x12723 $x92))))) (not (and $x22254 (not $x559))))))
 (let (($x11759 (not (<= (+ ?x109 (* (/ 1.0 20.0) (+ x4 (* 20.0 ?lambda)))) 261.0))))
 (let ((?x2692 (* ?x26295 ?x7910)))
 (let (($x10258 (<= ?x2692 ?x20383)))
 (let (($x1361 (and (not (and (not $x10258) (not (and $x19375 $x92)))) (not (and $x10258 (not (and $x11759 $x92)))))))
 (let (($x12034 (and (<= (+ ?x109 (* (/ 1.0 20.0) (+ x4 (* 20.0 ?lambda)))) 420.0) (and $x31279 (and $x10258 $x92)))))
 (let (($x6662 (and (<= ?x109 50.0) (and (not (and $x2313 (not $x12034))) (not (and $x22254 (not $x1361)))))))
 (let (($x15469 (and $x8353 (and (not (and $x3890 (not $x6662))) (not (and $x4565 (not $x4065)))))))
 (let (($x30945 (not $x15469)))
 (let (($x5395 (and (not (and $x14291 $x12236)) (not (and $x4728 $x30945)))))
 (let ((?x1617 (+ ?x18857 (* (/ ?x15440 2.0) ?x65))))
 (let (($x2051 (<= ?x1617 (/ 693.0 2.0))))
 (let (($x6287 (<= ?x39426 20.0)))
 (let (($x11574 (and $x6287 (not (and (not (and (not $x2051) $x12236)) (not (and $x2051 (not $x5395))))))))
 (let (($x1407 (not (and (<= ?x1617 585.0) (and (not (and (not $x6287) $x30945)) (not $x11574))))))
 (let (($x18570 (not $x7021)))
 (let (($x2212 (and bool.b6 (and (not (and $x18570 $x1407)) (not (and $x7021 (not (and $x6646 $x5395))))))))
 (let (($x14621 (not bool.b23)))
 (let (($x10694 (and (not (and $x14621 (not $x2212))) (not (and bool.b23 (not (and bool.b6 $x16136)))))))
 (let (($x16792 (not bool.b5)))
 (let (($x13315 (not (and bool.b5 (not (and (not bool.b6) (not bool.b7)))))))
 (let (($x6680 (not bool.b22)))
 (let (($x11282 (exists ((?lambdaprime Real) )(! (let (($x6680 (not bool.b22)))
 (let (($x16640 (not (<= (* (- 1.0) (+ x3 (* 1.0 ?lambdaprime))) (- 20.0)))))
 (let (($x14842 (and $x16640 (not (<= (* (- 1.0) (+ x4 (* 20.0 ?lambdaprime))) (- 4910.0))))))
 (let (($x19808 (and (not $x14842) (and $x6680 (and (not bool.b7) (and (not bool.b5) bool.b6))))))
 (let (($x5432 (and $x16640 (not (<= (* (- 1.0) (+ x4 (* 20.0 ?lambdaprime))) (- 4500.0))))))
 (let (($x6678 (and (not $x5432) (and $x6680 (and bool.b7 (and (not bool.b5) (not bool.b6)))))))
 (let (($x25427 (and $x16640 (not (<= (* (- 1.0) (+ x4 (* 20.0 ?lambdaprime))) (- 4100.0))))))
 (let (($x10586 (and (not $x25427) (and $x6680 (and (not bool.b7) (and (not bool.b5) (not bool.b6)))))))
 (let (($x33926 (and (not (<= (* (- 1.0) (+ x5 (* 1.0 ?lambdaprime))) (- 10.0))) (and (and (not $x10586) (not $x6678)) (not $x19808)))))
 (and (and (<= 0.0 ?lambdaprime) (<= ?lambdaprime ?lambda)) (not $x33926))))))))))) :qid k!27))
 ))
 (or (or $x11282 (< ?lambda 0.0)) (not (and $x6680 (and $x13315 (not (and $x16792 (not $x10694)))))))))))))))))))))))))))))))))))))))))))))))))))))))))))))))))))))))))))))))
 )
(check-sat)
